
Starting CP-SAT solver v9.14.6206
Parameters: max_time_in_seconds: 600 log_search_progress: true relative_gap_limit: 0
Setting number of workers to 20

Initial optimization model '': (model_fingerprint: 0xcdcc795278e6639f)
#Variables: 689 (#ints: 1 in objective) (493 primary variables)
  - 160 in [0,18097]
  - 32 in [0,90485]
  - 1 in [0,579104]
  - 1 in [0,3474624]
  - 2 in [0,4053728]
  - 72 in [1440,18097]
  - 420 in [2880,18097]
  - 1 constants in {0} 
#kInterval: 247 (#fixed: 1)
#kLinMax: 96 (#expressions: 192)
#kLinear1: 33
#kLinear2: 310
#kLinear3: 2
#kLinearN: 2 (#terms: 98)
#kNoOverlap: 10 (#intervals: 247, #fixed_intervals: 1)

Starting presolve at 0.00s
  9.29e-05s  0.00e+00d  [DetectDominanceRelations] 
  2.89e-03s  0.00e+00d  [operations_research::sat::CpModelPresolver::PresolveToFixPoint] #num_loops=10 #num_dual_strengthening=1 
  6.30e-06s  0.00e+00d  [operations_research::sat::CpModelPresolver::ExtractEncodingFromLinear] 
  2.71e-05s  0.00e+00d  [operations_research::sat::CpModelPresolver::DetectDuplicateColumns] 
  1.38e-04s  0.00e+00d  [operations_research::sat::CpModelPresolver::DetectDuplicateConstraints] 
[Symmetry] Graph for symmetry has 1'591 nodes and 1'537 arcs.
[Symmetry] Symmetry computation done. time: 0.0001338 dtime: 0.00024109
  1.40e-04s  0.00e+00d  [operations_research::sat::CpModelPresolver::DetectDuplicateConstraintsWithDifferentEnforcements] 
  1.03e-03s  5.27e-06d  [operations_research::sat::CpModelPresolver::Probe] #new_bounds=17 
  6.20e-06s  0.00e+00d  [MaxClique] 
  1.10e-04s  0.00e+00d  [DetectDominanceRelations] 
  8.20e-04s  0.00e+00d  [operations_research::sat::CpModelPresolver::PresolveToFixPoint] #num_loops=2 #num_dual_strengthening=1 
  5.94e-05s  0.00e+00d  [operations_research::sat::CpModelPresolver::ProcessAtMostOneAndLinear] 
  9.95e-05s  0.00e+00d  [operations_research::sat::CpModelPresolver::DetectDuplicateConstraints] 
  9.18e-05s  0.00e+00d  [operations_research::sat::CpModelPresolver::DetectDuplicateConstraintsWithDifferentEnforcements] 
  6.00e-05s  1.84e-06d  [operations_research::sat::CpModelPresolver::DetectDominatedLinearConstraints] #relevant_constraints=307 
  4.69e-05s  0.00e+00d  [operations_research::sat::CpModelPresolver::DetectDifferentVariables] 
  5.00e-06s  0.00e+00d  [operations_research::sat::CpModelPresolver::ProcessSetPPC] 
  6.50e-06s  0.00e+00d  [operations_research::sat::CpModelPresolver::FindAlmostIdenticalLinearConstraints] 
  1.66e-05s  0.00e+00d  [operations_research::sat::CpModelPresolver::FindBigAtMostOneAndLinearOverlap] 
  3.77e-05s  1.09e-05d  [operations_research::sat::CpModelPresolver::FindBigVerticalLinearOverlap] 
  4.50e-06s  0.00e+00d  [operations_research::sat::CpModelPresolver::FindBigHorizontalLinearOverlap] 
  8.20e-06s  0.00e+00d  [operations_research::sat::CpModelPresolver::MergeClauses] 
  1.01e-04s  0.00e+00d  [DetectDominanceRelations] 
  5.17e-04s  0.00e+00d  [operations_research::sat::CpModelPresolver::PresolveToFixPoint] #num_loops=1 #num_dual_strengthening=1 
  1.09e-04s  0.00e+00d  [DetectDominanceRelations] 
  5.36e-04s  0.00e+00d  [operations_research::sat::CpModelPresolver::PresolveToFixPoint] #num_loops=1 #num_dual_strengthening=1 
  2.67e-05s  0.00e+00d  [operations_research::sat::CpModelPresolver::DetectDuplicateColumns] 
  1.03e-04s  0.00e+00d  [operations_research::sat::CpModelPresolver::DetectDuplicateConstraints] 
[Symmetry] Graph for symmetry has 1'498 nodes and 1'352 arcs.
[Symmetry] Symmetry computation done. time: 0.0001249 dtime: 0.00022736
  1.04e-04s  0.00e+00d  [operations_research::sat::CpModelPresolver::DetectDuplicateConstraintsWithDifferentEnforcements] 
  8.30e-04s  2.34e-06d  [operations_research::sat::CpModelPresolver::Probe] 
  5.60e-06s  0.00e+00d  [MaxClique] 
  1.13e-04s  0.00e+00d  [DetectDominanceRelations] 
  5.73e-04s  0.00e+00d  [operations_research::sat::CpModelPresolver::PresolveToFixPoint] #num_loops=1 #num_dual_strengthening=1 
  6.26e-05s  0.00e+00d  [operations_research::sat::CpModelPresolver::ProcessAtMostOneAndLinear] 
  1.00e-04s  0.00e+00d  [operations_research::sat::CpModelPresolver::DetectDuplicateConstraints] 
  9.53e-05s  0.00e+00d  [operations_research::sat::CpModelPresolver::DetectDuplicateConstraintsWithDifferentEnforcements] 
  4.97e-05s  1.84e-06d  [operations_research::sat::CpModelPresolver::DetectDominatedLinearConstraints] #relevant_constraints=307 
  4.36e-05s  0.00e+00d  [operations_research::sat::CpModelPresolver::DetectDifferentVariables] 
  4.20e-06s  0.00e+00d  [operations_research::sat::CpModelPresolver::ProcessSetPPC] 
  6.80e-06s  0.00e+00d  [operations_research::sat::CpModelPresolver::FindAlmostIdenticalLinearConstraints] 
  1.65e-05s  0.00e+00d  [operations_research::sat::CpModelPresolver::FindBigAtMostOneAndLinearOverlap] 
  4.03e-05s  1.09e-05d  [operations_research::sat::CpModelPresolver::FindBigVerticalLinearOverlap] 
  4.40e-06s  0.00e+00d  [operations_research::sat::CpModelPresolver::FindBigHorizontalLinearOverlap] 
  9.00e-06s  0.00e+00d  [operations_research::sat::CpModelPresolver::MergeClauses] 
  9.80e-05s  0.00e+00d  [DetectDominanceRelations] 
  5.26e-04s  0.00e+00d  [operations_research::sat::CpModelPresolver::PresolveToFixPoint] #num_loops=1 #num_dual_strengthening=1 
  2.26e-05s  0.00e+00d  [operations_research::sat::CpModelPresolver::ExpandObjective] 

Presolve summary:
  - 340 affine relations were detected.
  - rule 'TODO dual: only one blocking constraint?' was applied 570 times.
  - rule 'TODO dual: only one unspecified blocking constraint?' was applied 465 times.
  - rule 'affine: new relation' was applied 340 times.
  - rule 'intervals: removed unused interval' was applied 1 time.
  - rule 'lin_max: converted to equality' was applied 3 times.
  - rule 'lin_max: removed exprs' was applied 3 times.
  - rule 'lin_max: rewrite with precedences' was applied 93 times.
  - rule 'lin_max: target domain reduced' was applied 96 times.
  - rule 'linear1: x in domain' was applied 11 times.
  - rule 'linear: always true' was applied 118 times.
  - rule 'linear: doubleton free' was applied 2 times.
  - rule 'linear: empty' was applied 3 times.
  - rule 'linear: fixed or dup variables' was applied 10 times.
  - rule 'linear: reduced variable domains' was applied 1'384 times.
  - rule 'linear: remapped using affine relations' was applied 526 times.
  - rule 'linear: variable substitution 0' was applied 1 time.
  - rule 'linear: variable substitution 1' was applied 2 times.
  - rule 'no_overlap: split into disjoint components' was applied 1 time.
  - rule 'presolve: 7 unused variables removed.' was applied 1 time.
  - rule 'presolve: iteration' was applied 2 times.

Presolved optimization model '': (model_fingerprint: 0xd5df3fe15c088835)
#Variables: 339 (#ints: 93 in objective) (246 primary variables)
  - 217 different domains in [0,18076] with a largest complexity of 1.
#kInterval: 246
#kLinear2: 307
#kNoOverlap: 10 (#intervals: 246)
[Symmetry] Graph for symmetry has 1'148 nodes and 1'352 arcs.
[Symmetry] Symmetry computation done. time: 9.69e-05 dtime: 0.00020636

Preloading model.
#Bound   0.01s best:inf   next:[0,2257370] initial_domain
#Model   0.01s var:339/339 constraints:563/563

Starting search at 0.01s with 20 workers.
13 full problem subsolvers: [core, default_lp, fixed, lb_tree_search, max_lp, no_lp, objective_lb_search, objective_shaving_no_lp, probing, pseudo_costs, quick_restart, quick_restart_no_lp, reduced_costs]
7 first solution subsolvers: [fj(2), fj_lin, fs_random, fs_random_no_lp, fs_random_quick_restart, fs_random_quick_restart_no_lp]
17 interleaved subsolvers: [feasibility_pump, graph_arc_lns, graph_cst_lns, graph_dec_lns, graph_var_lns, lb_relax_lns, ls(2), ls_lin, rins/rens, rnd_cst_lns, rnd_var_lns, scheduling_intervals_lns, scheduling_precedences_lns, scheduling_resource_windows_lns, scheduling_time_window_lns, variables_shaving]
3 helper subsolvers: [neighborhood_helper, synchronization_agent, update_gap_integral]

#1       0.03s best:51541 next:[0,51540]  no_lp
#2       0.03s best:540   next:[0,539]    core
#Bound   0.03s best:540   next:[14,539]   objective_lb_search
#Bound   0.04s best:540   next:[16,539]   objective_lb_search
#3       0.05s best:539   next:[16,538]   graph_cst_lns (d=5.00e-01 s=25 t=0.10 p=0.00 stall=0 h=base) [hint]
#4       0.05s best:147   next:[16,146]   objective_lb_search
#5       0.06s best:146   next:[16,145]   quick_restart_no_lp
#Bound   0.08s best:146   next:[17,145]   objective_lb_search
#Bound   0.12s best:146   next:[18,145]   bool_core (num_cores=1 [cover] a=92 d=2 fixed=18/430 clauses=461)
#Bound   0.12s best:146   next:[19,145]   bool_core (num_cores=1 [cover] a=92 d=2 fixed=19/437 clauses=515)
#Bound   0.12s best:146   next:[20,145]   bool_core (num_cores=1 [cover] a=92 d=2 fixed=20/444 clauses=572)
#Bound   0.12s best:146   next:[21,145]   bool_core (num_cores=1 [cover] a=92 d=2 fixed=21/451 clauses=632)
#Bound   0.12s best:146   next:[22,145]   bool_core (num_cores=1 [cover] a=92 d=2 fixed=22/458 clauses=695)
#6       0.14s best:145   next:[22,144]   no_lp
#7       0.17s best:144   next:[22,143]   quick_restart_no_lp
#8       0.18s best:143   next:[22,142]   quick_restart_no_lp
#9       0.19s best:71    next:[22,70]    rins_lp_lns (d=5.00e-01 s=28 t=0.10 p=0.00 stall=0 h=base)
#10      0.21s best:70    next:[22,69]    fixed
#11      0.22s best:69    next:[22,68]    fixed
#12      0.23s best:25    next:[22,24]    objective_lb_search
#13      0.25s best:24    next:[22,23]    quick_restart_no_lp
#14      0.25s best:22    next:[]         core
#Done    0.26s core

Task timing                                  n [     min,      max]      avg      dev     time         n [     min,      max]      avg      dev    dtime
                             'core':         1 [240.51ms, 240.51ms] 240.51ms   0.00ns 240.51ms         1 [ 17.29ms,  17.29ms]  17.29ms   0.00ns  17.29ms
                       'default_lp':         1 [240.89ms, 240.89ms] 240.89ms   0.00ns 240.89ms         0 [  0.00ns,   0.00ns]   0.00ns   0.00ns   0.00ns
                 'feasibility_pump':         1 [  5.16ms,   5.16ms]   5.16ms   0.00ns   5.16ms         0 [  0.00ns,   0.00ns]   0.00ns   0.00ns   0.00ns
                            'fixed':         1 [244.95ms, 244.95ms] 244.95ms   0.00ns 244.95ms         1 [ 19.67ms,  19.67ms]  19.67ms   0.00ns  19.67ms
                               'fj':         1 [ 81.81ms,  81.81ms]  81.81ms   0.00ns  81.81ms         1 [100.06ms, 100.06ms] 100.06ms   0.00ns 100.06ms
                               'fj':         1 [100.75ms, 100.75ms] 100.75ms   0.00ns 100.75ms         1 [100.42ms, 100.42ms] 100.42ms   0.00ns 100.42ms
                           'fj_lin':         0 [  0.00ns,   0.00ns]   0.00ns   0.00ns   0.00ns         0 [  0.00ns,   0.00ns]   0.00ns   0.00ns   0.00ns
                        'fs_random':         1 [  8.10ms,   8.10ms]   8.10ms   0.00ns   8.10ms         1 [  4.53us,   4.53us]   4.53us   0.00ns   4.53us
                  'fs_random_no_lp':         1 [  7.99ms,   7.99ms]   7.99ms   0.00ns   7.99ms         1 [160.25us, 160.25us] 160.25us   0.00ns 160.25us
          'fs_random_quick_restart':         1 [  7.91ms,   7.91ms]   7.91ms   0.00ns   7.91ms         0 [  0.00ns,   0.00ns]   0.00ns   0.00ns   0.00ns
    'fs_random_quick_restart_no_lp':         1 [  7.64ms,   7.64ms]   7.64ms   0.00ns   7.64ms         1 [185.62us, 185.62us] 185.62us   0.00ns 185.62us
                    'graph_arc_lns':         1 [231.45ms, 231.45ms] 231.45ms   0.00ns 231.45ms         1 [ 18.20ms,  18.20ms]  18.20ms   0.00ns  18.20ms
                    'graph_cst_lns':         1 [  7.86ms,   7.86ms]   7.86ms   0.00ns   7.86ms         1 [ 96.35us,  96.35us]  96.35us   0.00ns  96.35us
                    'graph_dec_lns':         1 [380.30us, 380.30us] 380.30us   0.00ns 380.30us         0 [  0.00ns,   0.00ns]   0.00ns   0.00ns   0.00ns
                    'graph_var_lns':         1 [231.59ms, 231.59ms] 231.59ms   0.00ns 231.59ms         1 [ 10.70ms,  10.70ms]  10.70ms   0.00ns  10.70ms
                     'lb_relax_lns':         1 [210.26ms, 210.26ms] 210.26ms   0.00ns 210.26ms         1 [  9.19ms,   9.19ms]   9.19ms   0.00ns   9.19ms
                   'lb_tree_search':         1 [242.69ms, 242.69ms] 242.69ms   0.00ns 242.69ms         0 [  0.00ns,   0.00ns]   0.00ns   0.00ns   0.00ns
                               'ls':         0 [  0.00ns,   0.00ns]   0.00ns   0.00ns   0.00ns         0 [  0.00ns,   0.00ns]   0.00ns   0.00ns   0.00ns
                               'ls':         0 [  0.00ns,   0.00ns]   0.00ns   0.00ns   0.00ns         0 [  0.00ns,   0.00ns]   0.00ns   0.00ns   0.00ns
                           'ls_lin':         0 [  0.00ns,   0.00ns]   0.00ns   0.00ns   0.00ns         0 [  0.00ns,   0.00ns]   0.00ns   0.00ns   0.00ns
                           'max_lp':         1 [244.71ms, 244.71ms] 244.71ms   0.00ns 244.71ms         1 [ 18.51ms,  18.51ms]  18.51ms   0.00ns  18.51ms
                            'no_lp':         1 [240.39ms, 240.39ms] 240.39ms   0.00ns 240.39ms         0 [  0.00ns,   0.00ns]   0.00ns   0.00ns   0.00ns
              'objective_lb_search':         1 [241.31ms, 241.31ms] 241.31ms   0.00ns 241.31ms         1 [ 23.01ms,  23.01ms]  23.01ms   0.00ns  23.01ms
          'objective_shaving_no_lp':         1 [ 22.45ms,  22.45ms]  22.45ms   0.00ns  22.45ms         1 [ 82.65us,  82.65us]  82.65us   0.00ns  82.65us
                          'probing':         1 [242.11ms, 242.11ms] 242.11ms   0.00ns 242.11ms         0 [  0.00ns,   0.00ns]   0.00ns   0.00ns   0.00ns
                     'pseudo_costs':         1 [242.77ms, 242.77ms] 242.77ms   0.00ns 242.77ms         1 [ 34.97ms,  34.97ms]  34.97ms   0.00ns  34.97ms
                    'quick_restart':         1 [244.25ms, 244.25ms] 244.25ms   0.00ns 244.25ms         1 [ 19.45ms,  19.45ms]  19.45ms   0.00ns  19.45ms
              'quick_restart_no_lp':         1 [243.14ms, 243.14ms] 243.14ms   0.00ns 243.14ms         1 [ 21.55ms,  21.55ms]  21.55ms   0.00ns  21.55ms
                    'reduced_costs':         1 [244.04ms, 244.04ms] 244.04ms   0.00ns 244.04ms         0 [  0.00ns,   0.00ns]   0.00ns   0.00ns   0.00ns
                        'rins/rens':         1 [ 82.34ms,  82.34ms]  82.34ms   0.00ns  82.34ms         1 [  3.39ms,   3.39ms]   3.39ms   0.00ns   3.39ms
                      'rnd_cst_lns':         1 [178.38ms, 178.38ms] 178.38ms   0.00ns 178.38ms         1 [  6.99ms,   6.99ms]   6.99ms   0.00ns   6.99ms
                      'rnd_var_lns':         1 [116.37ms, 116.37ms] 116.37ms   0.00ns 116.37ms         1 [  6.64ms,   6.64ms]   6.64ms   0.00ns   6.64ms
         'scheduling_intervals_lns':         1 [138.48ms, 138.48ms] 138.48ms   0.00ns 138.48ms         1 [  1.16ms,   1.16ms]   1.16ms   0.00ns   1.16ms
       'scheduling_precedences_lns':         1 [ 53.57ms,  53.57ms]  53.57ms   0.00ns  53.57ms         1 [432.42us, 432.42us] 432.42us   0.00ns 432.42us
  'scheduling_resource_windows_lns':         1 [ 69.93ms,  69.93ms]  69.93ms   0.00ns  69.93ms         1 [  1.21ms,   1.21ms]   1.21ms   0.00ns   1.21ms
       'scheduling_time_window_lns':         1 [116.04ms, 116.04ms] 116.04ms   0.00ns 116.04ms         1 [  2.48ms,   2.48ms]   2.48ms   0.00ns   2.48ms
                'variables_shaving':         1 [239.92ms, 239.92ms] 239.92ms   0.00ns 239.92ms         1 [ 10.89ms,  10.89ms]  10.89ms   0.00ns  10.89ms

Search stats                        Bools  Conflicts  Branches  Restarts  BoolPropag  IntegerPropag
                           'core':    512         26     5'174     1'837      52'908         55'755
                     'default_lp':  1'000        171     3'056       438      12'685        162'782
                          'fixed':  1'047         28     3'167       488       6'274        135'317
                      'fs_random':      0          0         0         0           0              0
                'fs_random_no_lp':     34          0        34         0           0          1'232
        'fs_random_quick_restart':      0          0         0         0           0              0
  'fs_random_quick_restart_no_lp':     38          0        38         0           0          1'458
                 'lb_tree_search':  2'921          0     4'028     4'028           0         30'201
                         'max_lp':    322         50     1'375       664       1'466         53'131
                          'no_lp':    842        102     4'460       938       5'252        117'154
            'objective_lb_search':    528        112     2'135       789       7'682        179'727
                        'probing':  2'921          0     3'806     3'806           0         28'594
                   'pseudo_costs':    327         51     1'103       439       2'243        108'532
                  'quick_restart':  1'227         40     2'971       444       8'611        136'525
            'quick_restart_no_lp':  1'544         50     4'397       487       9'669        172'408
                  'reduced_costs':  2'921          0     3'866     3'866           0         29'048

SAT stats                           ClassicMinim  LitRemoved  LitLearned  LitForgotten  Subsumed  MClauses  MDecisions  MLitTrue  MSubsumed  MLitRemoved  MReused
                           'core':             4          29         190             0         0     1'060       1'793         0          0            0      327
                     'default_lp':            98         403       3'427             0         0         0           0         0          0            0        0
                          'fixed':             0           0          82             0         0         0           0         0          0            0        0
                      'fs_random':             0           0           0             0         0         0           0         0          0            0        0
                'fs_random_no_lp':             0           0           0             0         0         0           0         0          0            0        0
        'fs_random_quick_restart':             0           0           0             0         0         0           0         0          0            0        0
  'fs_random_quick_restart_no_lp':             0           0           0             0         0         0           0         0          0            0        0
                 'lb_tree_search':             0           0           0             0         0         0           0         0          0            0        0
                         'max_lp':            28          39         354             0         0         0           0         0          0            0        0
                          'no_lp':           100         347       7'090             0         0         0           0         0          0            0        0
            'objective_lb_search':             6           6         627             0         0        98         272         0         31          146       36
                        'probing':             0           0           0             0         0         0           0         0          0            0        0
                   'pseudo_costs':             3           3         297             0         0         0           0         0          0            0        0
                  'quick_restart':            28          93         961             0         2         0           0         0          0            0        0
            'quick_restart_no_lp':            19          25         425             0         1         2           3         0          0            0        3
                  'reduced_costs':             0           0           0             0         0         0           0         0          0            0        0

Lp stats                      Component  Iterations  AddedCuts  OPTIMAL  DUAL_F.  DUAL_U.
               'default_lp':         32       1'650          0    3'840        0        0
                    'fixed':         32       2'500          0    4'176        0        0
                'fs_random':         32          60          0       75        0        0
  'fs_random_quick_restart':         32          26          0       26        0        0
           'lb_tree_search':          1           0          0        0        0        0
                   'max_lp':          1         774        394      236        5        0
      'objective_lb_search':         32         818          0    1'511        0        0
                  'probing':         32           0          0        0        0        0
             'pseudo_costs':          1       1'232        709      320       23        0
            'quick_restart':         32       2'039          0    3'581        0        0
            'reduced_costs':          1           0          0        0        0        0

Lp dimension                   Final dimension of first component
               'default_lp':       7 rows, 10 columns, 14 entries
                    'fixed':       7 rows, 10 columns, 14 entries
                'fs_random':        3 rows, 10 columns, 6 entries
  'fs_random_quick_restart':        2 rows, 10 columns, 4 entries
           'lb_tree_search':   307 rows, 339 columns, 614 entries
                   'max_lp':  386 rows, 339 columns, 1401 entries
      'objective_lb_search':       7 rows, 10 columns, 14 entries
                  'probing':        0 rows, 10 columns, 0 entries
             'pseudo_costs':   291 rows, 339 columns, 698 entries
            'quick_restart':       7 rows, 10 columns, 14 entries
            'reduced_costs':       0 rows, 339 columns, 0 entries

Lp debug                      CutPropag  CutEqPropag  Adjust  Overflow    Bad  BadScaling
               'default_lp':          0            0       0         0      0           0
                    'fixed':          0            0       0         0      0           0
                'fs_random':          0            0       0         0      0           0
  'fs_random_quick_restart':          0            0       0         0      0           0
           'lb_tree_search':          0            0       0         0      0           0
                   'max_lp':          0            4       2         0  1'791           0
      'objective_lb_search':          0            0       0         0      0           0
                  'probing':          0            0       0         0      0           0
             'pseudo_costs':          0            0       2         0    507           0
            'quick_restart':          0            0       0         0      0           0
            'reduced_costs':          0            0       0         0      0           0

Lp pool                       Constraints  Updates  Simplif  Merged  Shortened  Split  Strenghtened  Cuts/Call
               'default_lp':          307        0       70       0         32      0             0        0/0
                    'fixed':          307        0      135       0         32      0             0        0/0
                'fs_random':          307        0        0       0          0      0             0        0/0
  'fs_random_quick_restart':          307        0        0       0          0      0             0        0/0
           'lb_tree_search':          307        0        0       0          0      0             0        0/0
                   'max_lp':          692      423      299       9          0      0             4    394/594
      'objective_lb_search':          307        0       27       0         24      0             0        0/0
                  'probing':          307        0        0       0          0      0             0        0/0
             'pseudo_costs':          990      166    1'630      26          0      0            19  709/1'049
            'quick_restart':          307        0       91       0         32      0             0        0/0
            'reduced_costs':          307        0        0       0          0      0             0        0/0

Lp Cut                                                max_lp  pseudo_costs
                                               CG_K:       1             3
                                               CG_R:       4             7
                                            MIR_1_K:       2             3
                                            MIR_1_R:       5             9
                                            MIR_2_K:       -             1
                                            MIR_2_R:       -             1
                                            MIR_3_K:       2             1
                                            MIR_5_K:       -             1
                                            MIR_5_R:       -             1
                                            MIR_6_R:       1             -
                  NoOverlapCompletionTimeExhaustive:      13            10
           NoOverlapCompletionTimeExhaustive_lifted:      16            27
  NoOverlapCompletionTimeExhaustive_lifted_weighted:      32           103
         NoOverlapCompletionTimeExhaustive_weighted:      37            30
                    NoOverlapCompletionTimeQueyrane:      57           114
             NoOverlapCompletionTimeQueyrane_lifted:      96           180
                        NoOverlapDetectedPrecedence:      33            25
                          NoOverlapDisjunctionOnEnd:      18             5
                        NoOverlapDisjunctionOnStart:      72           184
                                        ZERO_HALF_R:       5             4

LNS stats                             Improv/Calls  Closed  Difficulty  TimeLimit
                    'graph_arc_lns':           1/1      0%    2.93e-01       0.10
                    'graph_cst_lns':           1/1    100%    7.07e-01       0.10
                    'graph_dec_lns':           0/0      0%    5.00e-01       0.10
                    'graph_var_lns':           1/1      0%    2.93e-01       0.10
                     'lb_relax_lns':           1/1      0%    2.93e-01       0.50
                        'rins/rens':           1/1    100%    7.07e-01       0.10
                      'rnd_cst_lns':           1/1    100%    7.07e-01       0.10
                      'rnd_var_lns':           1/1    100%    7.07e-01       0.10
         'scheduling_intervals_lns':           0/1      0%    2.93e-01       0.10
       'scheduling_precedences_lns':           1/1      0%    2.93e-01       0.10
  'scheduling_resource_windows_lns':           1/1      0%    2.93e-01       0.10
       'scheduling_time_window_lns':           1/1      0%    2.93e-01       0.10

LS stats                                    Batches  Restarts/Perturbs  LinMoves  GenMoves  CompoundMoves  Bactracks  WeightUpdates  ScoreComputed
                             'fj_restart':        1                  1        57     1'059              0          0             12        214'374
  'fj_restart_decay_compound_perturb_obj':        1                  1         0     2'008          1'127        440              0        209'541

Solutions (14)            Num     Rank
                 'core':    2   [2,14]
                'fixed':    2  [10,11]
        'graph_cst_lns':    1    [3,3]
                'no_lp':    2    [1,6]
  'objective_lb_search':    2   [4,12]
  'quick_restart_no_lp':    4   [5,13]
          'rins_lp_lns':    1    [9,9]

Objective bounds          Num
            'bool_core':    5
       'initial_domain':    1
  'objective_lb_search':    3

Solution repositories    Added  Queried  Synchro
  'feasible solutions':     52       25       21
   'fj solution hints':      0        0        0
        'lp solutions':      6        1        3
                'pump':      0        0

Improving bounds shared      Num  Sym
            'default_lp':     11    0
                 'fixed':  1'187    0
                 'no_lp':    610    0
   'objective_lb_search':    669    0
         'quick_restart':      7    0
   'quick_restart_no_lp':  1'628    0

CpSolverResponse summary:
status: OPTIMAL
objective: 22
best_bound: 22
integers: 340
booleans: 34
conflicts: 0
branches: 34
propagations: 0
integer_propagations: 1232
restarts: 0
lp_iterations: 0
walltime: 0.289774
usertime: 0.289774
deterministic_time: 0.426788
gap_integral: 1.26408
solution_fingerprint: 0x7100c7cd724e0dbb

